job_count = 12 ;
duration = [|2, 4|16, 1|9, 9|10, 5|10, 6|6, 1|3, 2|15, 5|15, 2|3, 4|17, 7|6, 1|] ;
machine_count = 2 ;
cost = [|12, 31|12, 22|16, 26|19, 36|18, 24|17, 24|15, 28|15, 34|15, 32|17, 32|19, 27|15, 39|] ;
deadline = [30, 30, 30, 30, 30, 30, 30, 30, 30, 30, 30, 30] ;
release = [0, 0, 0, 0, 0, 0, 0, 0, 0, 0, 0, 0] ;
resource = [|6, 6|3, 3|4, 4|6, 6|2, 2|2, 2|8, 8|2, 2|3, 3|9, 9|5, 5|1, 1|] ;
capacities = [10, 10] ;
